webassembly/ejemplos_results/4/folder4_json_78.txt
value = 4;
fgas = [1, 1, 1, 1];
fsize = [1, 1, 1, 1];
states = 
[|    in_0, in_1,  '.', '.', '.', '.', '.',  '.'
 | local_1, in_0, in_1, '.', '.', '.', '.',  '.'
 |  's(0)', in_1,  '.', '.', '.', '.', '.', in_0
 |     '.',  '.',  '.', '.', '.', '.', '.', in_0
 | local_0,  '.',  '.', '.', '.', '.', '.',  '.'
 |];
register_states = 
[| '.', '.', '.'
 | '.', '.', '.'
 | '.', '.', '.'
 | '.', '.', '.'
 | '.', '.', '.'
 |];
program = [O('local.get_1'), O('i32.add_0'), O('i32.store8_2'), O('local.get_0')];
% time elapsed: 0.06 s
----------
==========
% time elapsed: 0.06 s
% [value > 3]
